
Gurobi 7.0.2 (win64, Python) logging started 03/02/18 14:18:09


Gurobi 7.0.2 (win64, Python) logging started 03/02/18 15:53:58


Gurobi 7.0.2 (win64, Python) logging started 03/02/18 21:16:40


Gurobi 7.0.2 (win64, Python) logging started 03/02/18 21:52:38

